c Random Network
p min 10 20
n 1 1
n 10 -1
c Transformed from a max-flow problem.
a 	 2	1	0	2	0
a 	 5	10	0	27	0
a 	 4	2	0	18	0
a 	 4	3	0	28	0
a 	 6	4	0	4	0
a 	 6	10	0	44	0
a 	 2	4	0	45	0
a 	 10	9	0	31	0
a 	 6	1	0	43	0
a 	 9	2	0	22	0
a 	 1	2	0	47	0
a 	 3	4	0	16	0
a 	 5	6	0	1	0
a 	 1	5	0	19	0
a 	 3	2	0	21	0
a 	 1	6	0	3	0
a 	 3	1	0	35	0
a 	 8	9	0	39	0
a 	 6	8	0	18	0
a 	 3	10	0	10	0
